This is Ipopt version 3.14.4, running with linear solver MUMPS 5.4.1.

Number of nonzeros in equality constraint Jacobian...:    19061
Number of nonzeros in inequality constraint Jacobian.:     5912
Number of nonzeros in Lagrangian Hessian.............:        0

Total number of variables............................:     6568
                     variables with only lower bounds:     1517
                variables with lower and upper bounds:        0
                     variables with only upper bounds:        0
Total number of equality constraints.................:     5217
Total number of inequality constraints...............:     1796
        inequality constraints with only lower bounds:        0
   inequality constraints with lower and upper bounds:        0
        inequality constraints with only upper bounds:     1796

iter    objective    inf_pr   inf_du lg(mu)  ||d||  lg(rg) alpha_du alpha_pr  ls
   0  4.5910008e+02 6.84e+00 2.98e+00   0.0 0.00e+00    -  0.00e+00 0.00e+00   0
   1  6.6383840e+02 6.34e+00 1.32e+01  -0.6 4.33e+00    -  2.05e-02 7.28e-02f  1
   2  6.6609754e+02 6.33e+00 5.87e+02  -0.4 3.42e+00    -  9.01e-02 7.85e-04f  1
   3r 6.6609754e+02 6.33e+00 9.99e+02   0.2 0.00e+00    -  0.00e+00 4.91e-07R  5
   4r 2.1300945e+03 6.57e+00 9.98e+02   1.5 7.36e+02    -  1.31e-03 1.35e-03f  1
   5r 4.4690484e+03 7.03e+00 9.95e+02   1.3 1.49e+02    -  5.97e-03 3.23e-03f  1
   6r 6.6447987e+03 6.54e+00 9.89e+02   0.7 1.84e+02    -  1.22e-02 5.35e-03f  1
   7  6.6638582e+03 6.53e+00 1.08e+04   0.4 4.23e+00    -  1.00e+00 1.77e-03f  1
   8  6.6638753e+03 6.53e+00 9.70e+07   0.5 3.85e+00    -  1.61e-01 1.77e-05h  1
   9r 6.6638753e+03 6.53e+00 1.00e+03   0.4 0.00e+00    -  0.00e+00 8.86e-08R  2
iter    objective    inf_pr   inf_du lg(mu)  ||d||  lg(rg) alpha_du alpha_pr  ls
  10r 7.1645134e+03 5.37e+00 9.95e+02   0.7 1.86e+02    -  1.49e-02 4.88e-03f  1
  11  7.1614144e+03 5.37e+00 2.61e+03  -0.4 6.75e+00    -  1.12e-01 1.78e-04h  1
  12r 7.1614144e+03 5.37e+00 1.00e+03  -0.0 0.00e+00    -  0.00e+00 4.45e-07R  3
  13r 8.5735145e+03 3.46e+00 9.95e+02  -0.4 9.57e+01    -  5.23e-03 4.75e-03f  1
  14  8.5731130e+03 3.46e+00 2.82e+03  -4.0 3.66e+00    -  4.90e-02 1.72e-05f  1
  15r 8.5731130e+03 3.46e+00 1.00e+03  -0.0 0.00e+00    -  0.00e+00 8.61e-08R  2
  16r 9.7068093e+03 1.33e+00 9.97e+02   1.0 1.64e+02    -  4.41e-03 2.69e-03f  1
  17  9.7263026e+03 1.33e+00 3.34e+05   1.0 1.11e+01    -  8.16e-01 1.90e-04f  1
  18r 9.7263026e+03 1.33e+00 1.00e+03   0.9 0.00e+00    -  0.00e+00 4.75e-07R  3
  19r 1.0776385e+04 3.10e-01 9.52e+02   0.9 6.33e+00    -  1.91e-01 3.91e-02f  1
iter    objective    inf_pr   inf_du lg(mu)  ||d||  lg(rg) alpha_du alpha_pr  ls
  20  1.0818325e+04 3.09e-01 1.54e+03   0.8 1.87e+01    -  7.44e-02 2.50e-03f  1
  21  1.0817904e+04 3.09e-01 3.63e+06   0.4 9.82e+00    -  5.70e-02 2.51e-05h  1
  22r 1.0817904e+04 3.09e-01 1.00e+03   0.4 0.00e+00    -  0.00e+00 1.25e-07R  2
  23r 1.1861468e+04 1.26e-01 9.59e+02  -4.0 1.30e+01    -  4.88e-02 4.09e-02f  1
  24r 1.3474064e+04 1.26e-01 9.07e+02   0.1 3.71e+01    -  5.22e-02 5.42e-02f  1
  25r 1.5588141e+04 1.26e-01 8.22e+02   0.0 3.19e+00    -  1.18e-01 9.34e-02f  1
  26r 1.7743378e+04 1.26e-01 7.10e+02  -0.2 1.32e+00    -  2.60e-01 1.35e-01f  1
  27r 2.4048772e+04 1.26e-01 6.59e+02   0.5 5.52e+00    -  1.22e-01 7.03e-02f  1
  28r 3.0562531e+04 1.26e-01 5.48e+02   0.1 2.31e+00    -  4.95e-01 1.66e-01f  1
  29r 5.8094898e+04 1.26e-01 1.19e+02   0.0 2.58e+00    -  6.49e-01 7.83e-01f  1
iter    objective    inf_pr   inf_du lg(mu)  ||d||  lg(rg) alpha_du alpha_pr  ls
  30r 5.1144636e+04 1.26e-01 2.00e+01  -0.5 4.35e-01    -  8.62e-01 8.47e-01f  1
  31r 4.8031978e+04 1.26e-01 3.67e+01  -0.7 7.81e-01    -  1.00e+00 6.16e-01f  1
  32r 4.5767662e+04 1.26e-01 2.29e+02  -1.1 4.71e-01    -  1.00e+00 2.64e-01f  1
  33r 3.8331718e+04 1.26e-01 2.23e+02  -1.8 7.95e-01    -  1.00e+00 5.79e-01f  1
  34r 3.4913583e+04 1.26e-01 2.17e+01  -1.8 3.96e-01    -  1.00e+00 9.48e-01f  1
  35r 3.0138680e+04 1.26e-01 9.08e-02  -2.2 4.35e-01    -  1.00e+00 1.00e+00f  1
  36r 2.0931808e+04 1.26e-01 1.67e+01  -3.4 7.80e-01    -  5.49e-01 1.00e+00f  1
  37r 2.5065396e+04 1.26e-01 4.01e+01  -2.5 6.17e-01    -  1.00e+00 5.96e-01f  1
  38r 2.2739684e+04 1.26e-01 1.81e-02  -2.7 4.99e-01    -  1.00e+00 1.00e+00h  1
  39r 2.0683572e+04 1.26e-01 1.38e+00  -3.1 4.03e-01    -  9.26e-01 1.00e+00f  1
iter    objective    inf_pr   inf_du lg(mu)  ||d||  lg(rg) alpha_du alpha_pr  ls
  40r 1.8647207e+04 1.26e-01 1.96e-02  -3.8 4.20e-01    -  1.00e+00 1.00e+00f  1

Number of Iterations....: 40

                                   (scaled)                 (unscaled)
Objective...............:   6.9419468290954419e+03    1.8275381381580006e+04
Dual infeasibility......:   2.2020854311630293e+02    5.7972139631857885e+02
Constraint violation....:   1.2597999000000001e-01    1.2597999000000001e-01
Variable bound violation:   0.0000000000000000e+00    0.0000000000000000e+00
Complementarity.........:   1.3610271222335839e-04    3.5830423859259267e-04
Overall NLP error.......:   2.2020854311630293e+02    5.7972139631857885e+02


Number of objective function evaluations             = 59
Number of objective gradient evaluations             = 22
Number of equality constraint evaluations            = 59
Number of inequality constraint evaluations          = 59
Number of equality constraint Jacobian evaluations   = 48
Number of inequality constraint Jacobian evaluations = 48
Number of Lagrangian Hessian evaluations             = 0
Total seconds in IPOPT                               = 9.338

EXIT: Converged to a point of local infeasibility. Problem may be infeasible.
